NbClient = 6;
NbSites = 3;
MaxDemands = 235 ;

Demands = [ 45, 22, 44, 36, 24, 38 ];
Capacities = [ 86, 69, 79 ];
CostSite = [ 3069, 3465, 1108 ];
Revenues = [
  [ 91, 24, 13 ],
  [ 45, 41, 38 ],
  [ 27, 23, 96 ],
  [ 79, 21, 85 ],
  [ 64, 14, 13 ],
  [ 21, 37, 39 ],
];
